-236.0 2.0 5.0 4.0 7.0 9.0 1.0 3.0 5.0 0.0 3.0 0.0 10.0 6.0 6.0 6.0 3.0 4.0 0.0 10.0 4.0 6.0 7.0 1.0 2.0 10.0 0.0 1.0 2.0 5.0 3.0 0.0 10.0 5.0 1.0 3.0 3.0 1.0 1.0 10.0 5.0 2.0 2.0 0.0 1.0 2.0 10.0 2.0 1.0 5.0 1.0 6.0 4.0 7.0 0.0 1.0 3.0 0.0 2.0 5.0 2.0 2.0 6.0 3.0 5.0 0.0 0.0 
2.0 -300.0 6.0 2.0 5.0 5.0 4.0 4.0 2.0 7.0 1.0 2.0 2.0 9.0 2.0 2.0 4.0 3.0 6.0 7.0 6.0 9.0 5.0 10.0 8.0 5.0 9.0 4.0 8.0 10.0 4.0 9.0 1.0 6.0 4.0 10.0 6.0 1.0 7.0 6.0 5.0 4.0 1.0 7.0 4.0 6.0 7.0 10.0 4.0 7.0 10.0 4.0 1.0 6.0 6.0 4.0 2.0 9.0 0.0 0.0 0.0 0.0 0.0 0.0 0.0 0.0 0.0 
5.0 6.0 -313.0 4.0 9.0 9.0 3.0 6.0 2.0 1.0 4.0 4.0 9.0 1.0 2.0 3.0 8.0 9.0 9.0 9.0 7.0 2.0 1.0 9.0 4.0 0.0 8.0 0.0 1.0 6.0 2.0 7.0 7.0 2.0 3.0 7.0 0.0 6.0 8.0 0.0 0.0 9.0 3.0 1.0 1.0 4.0 10.0 9.0 3.0 4.0 5.0 7.0 7.0 1.0 9.0 7.0 2.0 5.0 2.0 2.0 3.0 5.0 8.0 1.0 10.0 3.0 9.0 
4.0 2.0 4.0 -324.0 8.0 10.0 6.0 9.0 9.0 2.0 1.0 0.0 9.0 7.0 2.0 9.0 6.0 7.0 10.0 1.0 6.0 2.0 3.0 9.0 7.0 7.0 4.0 6.0 0.0 4.0 3.0 9.0 6.0 4.0 8.0 8.0 0.0 9.0 3.0 2.0 2.0 1.0 4.0 7.0 1.0 10.0 9.0 8.0 2.0 9.0 4.0 6.0 7.0 3.0 5.0 1.0 9.0 2.0 7.0 2.0 1.0 5.0 1.0 2.0 7.0 1.0 2.0 
7.0 5.0 9.0 8.0 -333.0 0.0 4.0 7.0 8.0 10.0 2.0 1.0 0.0 5.0 5.0 3.0 4.0 10.0 3.0 6.0 4.0 4.0 4.0 6.0 0.0 2.0 9.0 0.0 5.0 2.0 8.0 6.0 7.0 2.0 5.0 1.0 3.0 4.0 9.0 0.0 6.0 10.0 10.0 9.0 7.0 5.0 7.0 7.0 9.0 0.0 9.0 5.0 2.0 9.0 3.0 7.0 8.0 3.0 4.0 6.0 0.0 6.0 5.0 6.0 0.0 7.0 5.0 
9.0 5.0 9.0 10.0 0.0 -355.0 1.0 5.0 2.0 2.0 6.0 7.0 5.0 0.0 9.0 1.0 10.0 3.0 8.0 3.0 10.0 10.0 8.0 1.0 10.0 4.0 2.0 5.0 10.0 6.0 4.0 0.0 4.0 8.0 1.0 0.0 3.0 4.0 5.0 8.0 6.0 7.0 10.0 10.0 3.0 9.0 7.0 10.0 5.0 9.0 6.0 4.0 8.0 6.0 3.0 0.0 3.0 0.0 4.0 3.0 8.0 5.0 9.0 6.0 1.0 10.0 5.0 
1.0 4.0 3.0 6.0 4.0 1.0 -315.0 7.0 2.0 10.0 6.0 2.0 7.0 3.0 10.0 0.0 5.0 9.0 5.0 9.0 2.0 3.0 2.0 0.0 4.0 7.0 10.0 8.0 8.0 8.0 2.0 5.0 1.0 1.0 9.0 7.0 4.0 6.0 8.0 2.0 10.0 7.0 1.0 5.0 7.0 3.0 6.0 3.0 9.0 3.0 4.0 0.0 7.0 0.0 4.0 5.0 6.0 2.0 0.0 0.0 9.0 0.0 7.0 9.0 7.0 7.0 3.0 
3.0 4.0 6.0 9.0 7.0 5.0 7.0 -329.0 3.0 8.0 5.0 1.0 1.0 5.0 4.0 2.0 10.0 3.0 2.0 1.0 1.0 8.0 6.0 9.0 8.0 3.0 2.0 7.0 3.0 9.0 2.0 2.0 8.0 0.0 7.0 3.0 9.0 8.0 3.0 3.0 5.0 5.0 5.0 0.0 7.0 0.0 8.0 5.0 3.0 3.0 5.0 6.0 0.0 0.0 0.0 7.0 9.0 8.0 9.0 5.0 9.0 10.0 9.0 7.0 3.0 8.0 6.0 
5.0 2.0 2.0 9.0 8.0 2.0 2.0 3.0 -349.0 0.0 3.0 7.0 9.0 2.0 1.0 10.0 3.0 3.0 2.0 7.0 4.0 8.0 4.0 5.0 6.0 3.0 4.0 4.0 9.0 4.0 8.0 9.0 3.0 8.0 8.0 5.0 4.0 4.0 10.0 4.0 1.0 10.0 10.0 5.0 7.0 9.0 7.0 2.0 2.0 8.0 10.0 1.0 3.0 8.0 6.0 6.0 8.0 4.0 1.0 1.0 8.0 7.0 9.0 3.0 1.0 8.0 10.0 
0.0 7.0 1.0 2.0 10.0 2.0 10.0 8.0 0.0 -341.0 5.0 4.0 3.0 8.0 4.0 10.0 9.0 1.0 3.0 9.0 6.0 0.0 2.0 0.0 8.0 7.0 10.0 6.0 1.0 6.0 3.0 7.0 3.0 5.0 7.0 2.0 8.0 8.0 9.0 0.0 4.0 5.0 0.0 10.0 7.0 5.0 8.0 10.0 0.0 5.0 10.0 8.0 0.0 5.0 3.0 5.0 10.0 7.0 1.0 6.0 4.0 7.0 8.0 5.0 4.0 2.0 8.0 
3.0 1.0 4.0 1.0 2.0 6.0 6.0 5.0 3.0 5.0 -301.0 9.0 6.0 9.0 6.0 7.0 7.0 6.0 3.0 6.0 4.0 1.0 7.0 8.0 3.0 7.0 8.0 3.0 6.0 7.0 2.0 8.0 3.0 3.0 3.0 8.0 3.0 6.0 0.0 4.0 6.0 4.0 1.0 3.0 3.0 10.0 7.0 6.0 3.0 2.0 7.0 0.0 1.0 9.0 3.0 1.0 1.0 10.0 2.0 10.0 0.0 7.0 5.0 3.0 2.0 0.0 6.0 
0.0 2.0 4.0 0.0 1.0 7.0 2.0 1.0 7.0 4.0 9.0 -347.0 4.0 1.0 4.0 3.0 4.0 6.0 10.0 6.0 3.0 2.0 0.0 4.0 5.0 7.0 10.0 7.0 4.0 0.0 6.0 10.0 6.0 4.0 9.0 8.0 8.0 3.0 0.0 10.0 3.0 6.0 6.0 10.0 10.0 5.0 1.0 1.0 7.0 6.0 9.0 5.0 6.0 10.0 6.0 9.0 2.0 9.0 10.0 2.0 7.0 8.0 9.0 7.0 4.0 8.0 0.0 
10.0 2.0 9.0 9.0 0.0 5.0 7.0 1.0 9.0 3.0 6.0 4.0 -354.0 9.0 10.0 0.0 9.0 0.0 10.0 2.0 10.0 6.0 2.0 6.0 0.0 5.0 10.0 2.0 2.0 9.0 9.0 8.0 5.0 9.0 5.0 10.0 4.0 6.0 5.0 10.0 7.0 5.0 2.0 1.0 0.0 3.0 1.0 7.0 10.0 8.0 8.0 3.0 3.0 1.0 3.0 8.0 9.0 2.0 2.0 9.0 3.0 9.0 4.0 6.0 0.0 6.0 6.0 
6.0 9.0 1.0 7.0 5.0 0.0 3.0 5.0 2.0 8.0 9.0 1.0 9.0 -321.0 5.0 8.0 5.0 7.0 8.0 0.0 4.0 6.0 0.0 9.0 0.0 9.0 10.0 9.0 8.0 5.0 2.0 3.0 5.0 5.0 1.0 8.0 8.0 6.0 10.0 4.0 6.0 4.0 6.0 6.0 5.0 7.0 8.0 9.0 2.0 0.0 10.0 8.0 2.0 2.0 1.0 1.0 4.0 5.0 0.0 3.0 2.0 7.0 2.0 1.0 1.0 7.0 2.0 
6.0 2.0 2.0 2.0 5.0 9.0 10.0 4.0 1.0 4.0 6.0 4.0 10.0 5.0 -329.0 9.0 10.0 1.0 6.0 5.0 0.0 2.0 0.0 6.0 1.0 10.0 6.0 0.0 8.0 0.0 1.0 3.0 10.0 10.0 1.0 9.0 7.0 1.0 3.0 4.0 2.0 7.0 7.0 3.0 9.0 6.0 0.0 5.0 10.0 10.0 6.0 5.0 8.0 6.0 7.0 1.0 1.0 10.0 0.0 2.0 0.0 9.0 4.0 9.0 7.0 5.0 7.0 
6.0 2.0 3.0 9.0 3.0 1.0 0.0 2.0 10.0 10.0 7.0 3.0 0.0 8.0 9.0 -316.0 0.0 0.0 1.0 8.0 3.0 7.0 4.0 5.0 4.0 4.0 4.0 8.0 10.0 0.0 1.0 1.0 6.0 1.0 4.0 1.0 9.0 7.0 9.0 3.0 7.0 6.0 5.0 3.0 0.0 2.0 0.0 10.0 3.0 5.0 9.0 6.0 9.0 7.0 10.0 0.0 4.0 6.0 6.0 3.0 3.0 8.0 9.0 7.0 0.0 9.0 6.0 
3.0 4.0 8.0 6.0 4.0 10.0 5.0 10.0 3.0 9.0 7.0 4.0 9.0 5.0 10.0 0.0 -345.0 1.0 7.0 2.0 6.0 9.0 4.0 6.0 4.0 0.0 7.0 8.0 8.0 2.0 3.0 9.0 2.0 7.0 7.0 5.0 8.0 4.0 8.0 5.0 6.0 3.0 7.0 0.0 2.0 7.0 10.0 2.0 5.0 0.0 10.0 6.0 8.0 1.0 1.0 2.0 7.0 10.0 4.0 0.0 8.0 4.0 10.0 4.0 1.0 1.0 7.0 
4.0 3.0 9.0 7.0 10.0 3.0 9.0 3.0 3.0 1.0 6.0 6.0 0.0 7.0 1.0 0.0 1.0 -304.0 7.0 7.0 3.0 5.0 3.0 7.0 2.0 2.0 10.0 0.0 7.0 3.0 1.0 2.0 10.0 8.0 6.0 5.0 1.0 8.0 9.0 2.0 2.0 4.0 2.0 4.0 3.0 7.0 6.0 4.0 9.0 3.0 4.0 2.0 8.0 5.0 5.0 2.0 3.0 5.0 2.0 7.0 7.0 5.0 2.0 0.0 7.0 9.0 6.0 
0.0 6.0 9.0 10.0 3.0 8.0 5.0 2.0 2.0 3.0 3.0 10.0 10.0 8.0 6.0 1.0 7.0 7.0 -343.0 8.0 7.0 1.0 7.0 8.0 7.0 10.0 4.0 2.0 9.0 10.0 4.0 10.0 5.0 0.0 4.0 4.0 0.0 2.0 7.0 0.0 9.0 6.0 7.0 1.0 8.0 8.0 5.0 5.0 0.0 6.0 1.0 10.0 0.0 5.0 4.0 5.0 3.0 6.0 1.0 10.0 8.0 6.0 1.0 10.0 3.0 1.0 5.0 
10.0 7.0 9.0 1.0 6.0 3.0 9.0 1.0 7.0 9.0 6.0 6.0 2.0 0.0 5.0 8.0 2.0 7.0 8.0 -376.0 2.0 0.0 8.0 10.0 6.0 7.0 2.0 10.0 6.0 0.0 7.0 7.0 7.0 5.0 0.0 4.0 9.0 0.0 6.0 8.0 7.0 3.0 6.0 1.0 7.0 5.0 10.0 6.0 7.0 10.0 7.0 7.0 3.0 4.0 10.0 4.0 10.0 7.0 10.0 0.0 7.0 0.0 4.0 4.0 9.0 10.0 8.0 
4.0 6.0 7.0 6.0 4.0 10.0 2.0 1.0 4.0 6.0 4.0 3.0 10.0 4.0 0.0 3.0 6.0 3.0 7.0 2.0 -311.0 0.0 8.0 5.0 6.0 8.0 3.0 2.0 2.0 7.0 1.0 7.0 3.0 10.0 7.0 6.0 1.0 4.0 1.0 2.0 7.0 6.0 2.0 1.0 0.0 9.0 7.0 8.0 0.0 3.0 8.0 4.0 2.0 10.0 1.0 5.0 6.0 9.0 9.0 4.0 2.0 8.0 4.0 9.0 3.0 8.0 1.0 
6.0 9.0 2.0 2.0 4.0 10.0 3.0 8.0 8.0 0.0 1.0 2.0 6.0 6.0 2.0 7.0 9.0 5.0 1.0 0.0 0.0 -290.0 4.0 6.0 3.0 1.0 9.0 10.0 2.0 5.0 2.0 0.0 1.0 10.0 6.0 1.0 8.0 2.0 1.0 8.0 7.0 1.0 4.0 8.0 5.0 5.0 4.0 8.0 8.0 9.0 5.0 3.0 0.0 2.0 0.0 10.0 4.0 3.0 6.0 2.0 8.0 0.0 3.0 3.0 0.0 6.0 6.0 
7.0 5.0 1.0 3.0 4.0 8.0 2.0 6.0 4.0 2.0 7.0 0.0 2.0 0.0 0.0 4.0 4.0 3.0 7.0 8.0 8.0 4.0 -335.0 2.0 7.0 6.0 9.0 3.0 10.0 5.0 8.0 3.0 3.0 6.0 4.0 7.0 10.0 4.0 4.0 6.0 0.0 3.0 2.0 5.0 1.0 10.0 8.0 5.0 9.0 5.0 2.0 10.0 7.0 8.0 10.0 3.0 7.0 8.0 5.0 8.0 5.0 3.0 2.0 5.0 8.0 5.0 5.0 
1.0 10.0 9.0 9.0 6.0 1.0 0.0 9.0 5.0 0.0 8.0 4.0 6.0 9.0 6.0 5.0 6.0 7.0 8.0 10.0 5.0 6.0 2.0 -339.0 4.0 9.0 7.0 9.0 6.0 1.0 8.0 9.0 4.0 0.0 10.0 10.0 6.0 8.0 1.0 2.0 0.0 10.0 0.0 8.0 2.0 10.0 2.0 3.0 4.0 1.0 8.0 1.0 9.0 8.0 2.0 6.0 6.0 8.0 1.0 0.0 1.0 1.0 9.0 8.0 1.0 2.0 2.0 
2.0 8.0 4.0 7.0 0.0 10.0 4.0 8.0 6.0 8.0 3.0 5.0 0.0 0.0 1.0 4.0 4.0 2.0 7.0 6.0 6.0 3.0 7.0 4.0 -335.0 0.0 3.0 7.0 1.0 5.0 9.0 6.0 1.0 5.0 10.0 9.0 7.0 9.0 4.0 7.0 1.0 4.0 7.0 5.0 6.0 0.0 9.0 7.0 3.0 5.0 10.0 9.0 0.0 10.0 1.0 10.0 2.0 0.0 9.0 5.0 10.0 9.0 2.0 3.0 6.0 4.0 6.0 
10.0 5.0 0.0 7.0 2.0 4.0 7.0 3.0 3.0 7.0 7.0 7.0 5.0 9.0 10.0 4.0 0.0 2.0 10.0 7.0 8.0 1.0 6.0 9.0 0.0 -350.0 3.0 8.0 5.0 10.0 1.0 3.0 1.0 5.0 6.0 10.0 7.0 5.0 10.0 6.0 6.0 1.0 9.0 1.0 8.0 3.0 9.0 5.0 3.0 9.0 10.0 5.0 2.0 4.0 5.0 6.0 3.0 3.0 1.0 4.0 6.0 2.0 4.0 10.0 5.0 7.0 6.0 
0.0 9.0 8.0 4.0 9.0 2.0 10.0 2.0 4.0 10.0 8.0 10.0 10.0 10.0 6.0 4.0 7.0 10.0 4.0 2.0 3.0 9.0 9.0 7.0 3.0 3.0 -392.0 3.0 6.0 10.0 9.0 5.0 9.0 5.0 7.0 8.0 6.0 4.0 5.0 5.0 10.0 7.0 8.0 1.0 10.0 6.0 4.0 8.0 4.0 6.0 4.0 7.0 1.0 9.0 0.0 7.0 7.0 1.0 8.0 3.0 10.0 9.0 8.0 0.0 0.0 1.0 8.0 
1.0 4.0 0.0 6.0 0.0 5.0 8.0 7.0 4.0 6.0 3.0 7.0 2.0 9.0 0.0 8.0 8.0 0.0 2.0 10.0 2.0 10.0 3.0 9.0 7.0 8.0 3.0 -303.0 4.0 4.0 8.0 4.0 10.0 7.0 1.0 1.0 4.0 2.0 4.0 7.0 7.0 2.0 5.0 0.0 8.0 5.0 2.0 5.0 2.0 10.0 5.0 0.0 3.0 5.0 0.0 4.0 10.0 1.0 3.0 3.0 1.0 9.0 2.0 0.0 7.0 6.0 10.0 
2.0 8.0 1.0 0.0 5.0 10.0 8.0 3.0 9.0 1.0 6.0 4.0 2.0 8.0 8.0 10.0 8.0 7.0 9.0 6.0 2.0 2.0 10.0 6.0 1.0 5.0 6.0 4.0 -382.0 1.0 1.0 10.0 2.0 10.0 7.0 5.0 10.0 7.0 9.0 2.0 10.0 0.0 10.0 5.0 8.0 9.0 3.0 10.0 10.0 7.0 5.0 6.0 8.0 10.0 0.0 6.0 6.0 1.0 6.0 5.0 5.0 10.0 3.0 6.0 0.0 9.0 9.0 
5.0 10.0 6.0 4.0 2.0 6.0 8.0 9.0 4.0 6.0 7.0 0.0 9.0 5.0 0.0 0.0 2.0 3.0 10.0 0.0 7.0 5.0 5.0 1.0 5.0 10.0 10.0 4.0 1.0 -310.0 0.0 5.0 3.0 3.0 7.0 0.0 0.0 10.0 7.0 4.0 7.0 3.0 7.0 6.0 3.0 5.0 4.0 7.0 2.0 1.0 4.0 3.0 0.0 7.0 1.0 4.0 9.0 6.0 5.0 0.0 8.0 3.0 4.0 10.0 10.0 2.0 6.0 
3.0 4.0 2.0 3.0 8.0 4.0 2.0 2.0 8.0 3.0 2.0 6.0 9.0 2.0 1.0 1.0 3.0 1.0 4.0 7.0 1.0 2.0 8.0 8.0 9.0 1.0 9.0 8.0 1.0 0.0 -309.0 9.0 4.0 3.0 10.0 3.0 6.0 9.0 5.0 9.0 3.0 3.0 2.0 7.0 2.0 9.0 8.0 5.0 8.0 2.0 9.0 0.0 6.0 2.0 4.0 7.0 6.0 4.0 2.0 4.0 4.0 3.0 5.0 5.0 8.0 3.0 8.0 
0.0 9.0 7.0 9.0 6.0 0.0 5.0 2.0 9.0 7.0 8.0 10.0 8.0 3.0 3.0 1.0 9.0 2.0 10.0 7.0 7.0 0.0 3.0 9.0 6.0 3.0 5.0 4.0 10.0 5.0 9.0 -354.0 2.0 7.0 6.0 0.0 8.0 0.0 3.0 0.0 1.0 7.0 0.0 3.0 0.0 8.0 4.0 4.0 5.0 9.0 6.0 5.0 6.0 7.0 4.0 9.0 8.0 9.0 10.0 9.0 5.0 0.0 10.0 7.0 6.0 4.0 6.0 
10.0 1.0 7.0 6.0 7.0 4.0 1.0 8.0 3.0 3.0 3.0 6.0 5.0 5.0 10.0 6.0 2.0 10.0 5.0 7.0 3.0 1.0 3.0 4.0 1.0 1.0 9.0 10.0 2.0 3.0 4.0 2.0 -341.0 10.0 6.0 9.0 10.0 3.0 2.0 2.0 9.0 3.0 6.0 10.0 8.0 3.0 0.0 9.0 5.0 6.0 9.0 4.0 5.0 9.0 8.0 0.0 5.0 3.0 4.0 8.0 5.0 8.0 5.0 3.0 5.0 3.0 4.0 
5.0 6.0 2.0 4.0 2.0 8.0 1.0 0.0 8.0 5.0 3.0 4.0 9.0 5.0 10.0 1.0 7.0 8.0 0.0 5.0 10.0 10.0 6.0 0.0 5.0 5.0 5.0 7.0 10.0 3.0 3.0 7.0 10.0 -319.0 1.0 4.0 9.0 4.0 6.0 10.0 4.0 7.0 0.0 10.0 7.0 9.0 1.0 1.0 3.0 0.0 1.0 4.0 2.0 0.0 9.0 4.0 7.0 2.0 7.0 1.0 9.0 0.0 0.0 5.0 6.0 9.0 3.0 
1.0 4.0 3.0 8.0 5.0 1.0 9.0 7.0 8.0 7.0 3.0 9.0 5.0 1.0 1.0 4.0 7.0 6.0 4.0 0.0 7.0 6.0 4.0 10.0 10.0 6.0 7.0 1.0 7.0 7.0 10.0 6.0 6.0 1.0 -343.0 8.0 0.0 4.0 3.0 8.0 9.0 7.0 6.0 5.0 9.0 3.0 2.0 5.0 6.0 9.0 7.0 3.0 6.0 6.0 2.0 4.0 9.0 2.0 0.0 7.0 0.0 10.0 8.0 1.0 6.0 4.0 3.0 
3.0 10.0 7.0 8.0 1.0 0.0 7.0 3.0 5.0 2.0 8.0 8.0 10.0 8.0 9.0 1.0 5.0 5.0 4.0 4.0 6.0 1.0 7.0 10.0 9.0 10.0 8.0 1.0 5.0 0.0 3.0 0.0 9.0 4.0 8.0 -381.0 6.0 2.0 6.0 0.0 6.0 10.0 9.0 5.0 0.0 6.0 8.0 10.0 1.0 8.0 0.0 9.0 8.0 6.0 10.0 10.0 10.0 4.0 8.0 8.0 7.0 9.0 7.0 1.0 2.0 9.0 7.0 
3.0 6.0 0.0 0.0 3.0 3.0 4.0 9.0 4.0 8.0 3.0 8.0 4.0 8.0 7.0 9.0 8.0 1.0 0.0 9.0 1.0 8.0 10.0 6.0 7.0 7.0 6.0 4.0 10.0 0.0 6.0 8.0 10.0 9.0 0.0 6.0 -349.0 1.0 6.0 7.0 9.0 4.0 1.0 8.0 3.0 6.0 3.0 5.0 9.0 0.0 6.0 7.0 5.0 8.0 9.0 5.0 4.0 1.0 3.0 0.0 5.0 9.0 6.0 9.0 5.0 0.0 10.0 
1.0 1.0 6.0 9.0 4.0 4.0 6.0 8.0 4.0 8.0 6.0 3.0 6.0 6.0 1.0 7.0 4.0 8.0 2.0 0.0 4.0 2.0 4.0 8.0 9.0 5.0 4.0 2.0 7.0 10.0 9.0 0.0 3.0 4.0 4.0 2.0 1.0 -315.0 4.0 10.0 9.0 5.0 7.0 7.0 6.0 1.0 0.0 5.0 4.0 4.0 0.0 1.0 5.0 5.0 3.0 9.0 5.0 8.0 10.0 0.0 6.0 7.0 4.0 10.0 6.0 2.0 0.0 
1.0 7.0 8.0 3.0 9.0 5.0 8.0 3.0 10.0 9.0 0.0 0.0 5.0 10.0 3.0 9.0 8.0 9.0 7.0 6.0 1.0 1.0 4.0 1.0 4.0 10.0 5.0 4.0 9.0 7.0 5.0 3.0 2.0 6.0 3.0 6.0 6.0 4.0 -351.0 9.0 9.0 0.0 9.0 10.0 5.0 1.0 2.0 9.0 6.0 0.0 9.0 2.0 3.0 8.0 6.0 6.0 10.0 0.0 7.0 10.0 1.0 6.0 0.0 9.0 4.0 9.0 0.0 
10.0 6.0 0.0 2.0 0.0 8.0 2.0 3.0 4.0 0.0 4.0 10.0 10.0 4.0 4.0 3.0 5.0 2.0 0.0 8.0 2.0 8.0 6.0 2.0 7.0 6.0 5.0 7.0 2.0 4.0 9.0 0.0 2.0 10.0 8.0 0.0 7.0 10.0 9.0 -350.0 2.0 8.0 7.0 4.0 7.0 10.0 10.0 7.0 9.0 10.0 6.0 0.0 4.0 1.0 2.0 1.0 9.0 8.0 10.0 9.0 1.0 6.0 2.0 7.0 7.0 6.0 8.0 
5.0 5.0 0.0 2.0 6.0 6.0 10.0 5.0 1.0 4.0 6.0 3.0 7.0 6.0 2.0 7.0 6.0 2.0 9.0 7.0 7.0 7.0 0.0 0.0 1.0 6.0 10.0 7.0 10.0 7.0 3.0 1.0 9.0 4.0 9.0 6.0 9.0 9.0 9.0 2.0 -354.0 1.0 9.0 3.0 0.0 5.0 7.0 8.0 5.0 8.0 10.0 9.0 0.0 1.0 7.0 9.0 2.0 3.0 1.0 6.0 7.0 0.0 9.0 6.0 10.0 5.0 8.0 
2.0 4.0 9.0 1.0 10.0 7.0 7.0 5.0 10.0 5.0 4.0 6.0 5.0 4.0 7.0 6.0 3.0 4.0 6.0 3.0 6.0 1.0 3.0 10.0 4.0 1.0 7.0 2.0 0.0 3.0 3.0 7.0 3.0 7.0 7.0 10.0 4.0 5.0 0.0 8.0 1.0 -293.0 2.0 4.0 4.0 6.0 0.0 0.0 2.0 1.0 4.0 5.0 7.0 2.0 7.0 4.0 1.0 1.0 10.0 3.0 8.0 9.0 0.0 0.0 3.0 6.0 4.0 
2.0 1.0 3.0 4.0 10.0 10.0 1.0 5.0 10.0 0.0 1.0 6.0 2.0 6.0 7.0 5.0 7.0 2.0 7.0 6.0 2.0 4.0 2.0 0.0 7.0 9.0 8.0 5.0 10.0 7.0 2.0 0.0 6.0 0.0 6.0 9.0 1.0 7.0 9.0 7.0 9.0 2.0 -314.0 5.0 1.0 6.0 5.0 3.0 5.0 8.0 2.0 5.0 9.0 3.0 9.0 5.0 4.0 8.0 0.0 6.0 2.0 4.0 3.0 4.0 6.0 4.0 0.0 
0.0 7.0 1.0 7.0 9.0 10.0 5.0 0.0 5.0 10.0 3.0 10.0 1.0 6.0 3.0 3.0 0.0 4.0 1.0 1.0 1.0 8.0 5.0 8.0 5.0 1.0 1.0 0.0 5.0 6.0 7.0 3.0 10.0 10.0 5.0 5.0 8.0 7.0 10.0 4.0 3.0 4.0 5.0 -334.0 5.0 9.0 3.0 8.0 0.0 9.0 10.0 8.0 4.0 7.0 5.0 2.0 6.0 3.0 8.0 9.0 1.0 9.0 1.0 0.0 10.0 7.0 3.0 
1.0 4.0 1.0 1.0 7.0 3.0 7.0 7.0 7.0 7.0 3.0 10.0 0.0 5.0 9.0 0.0 2.0 3.0 8.0 7.0 0.0 5.0 1.0 2.0 6.0 8.0 10.0 8.0 8.0 3.0 2.0 0.0 8.0 7.0 9.0 0.0 3.0 6.0 5.0 7.0 0.0 4.0 1.0 5.0 -296.0 5.0 0.0 0.0 4.0 7.0 5.0 7.0 1.0 5.0 9.0 5.0 7.0 4.0 1.0 2.0 0.0 3.0 5.0 8.0 6.0 9.0 3.0 
2.0 6.0 4.0 10.0 5.0 9.0 3.0 0.0 9.0 5.0 10.0 5.0 3.0 7.0 6.0 2.0 7.0 7.0 8.0 5.0 9.0 5.0 10.0 10.0 0.0 3.0 6.0 5.0 9.0 5.0 9.0 8.0 3.0 9.0 3.0 6.0 6.0 1.0 1.0 10.0 5.0 6.0 6.0 9.0 5.0 -380.0 7.0 5.0 8.0 9.0 5.0 10.0 2.0 1.0 3.0 5.0 6.0 1.0 8.0 2.0 6.0 1.0 9.0 7.0 5.0 10.0 8.0 
10.0 7.0 10.0 9.0 7.0 7.0 6.0 8.0 7.0 8.0 7.0 1.0 1.0 8.0 0.0 0.0 10.0 6.0 5.0 10.0 7.0 4.0 8.0 2.0 9.0 9.0 4.0 2.0 3.0 4.0 8.0 4.0 0.0 1.0 2.0 8.0 3.0 0.0 2.0 10.0 7.0 0.0 5.0 3.0 0.0 7.0 -312.0 0.0 9.0 8.0 0.0 0.0 3.0 2.0 3.0 2.0 4.0 2.0 9.0 1.0 10.0 4.0 5.0 10.0 1.0 0.0 0.0 
2.0 10.0 9.0 8.0 7.0 10.0 3.0 5.0 2.0 10.0 6.0 1.0 7.0 9.0 5.0 10.0 2.0 4.0 5.0 6.0 8.0 8.0 5.0 3.0 7.0 5.0 8.0 5.0 10.0 7.0 5.0 4.0 9.0 1.0 5.0 10.0 5.0 5.0 9.0 7.0 8.0 0.0 3.0 8.0 0.0 5.0 0.0 -373.0 6.0 10.0 9.0 0.0 1.0 4.0 0.0 9.0 9.0 7.0 2.0 9.0 6.0 4.0 2.0 2.0 9.0 6.0 7.0 
1.0 4.0 3.0 2.0 9.0 5.0 9.0 3.0 2.0 0.0 3.0 7.0 10.0 2.0 10.0 3.0 5.0 9.0 0.0 7.0 0.0 8.0 9.0 4.0 3.0 3.0 4.0 2.0 10.0 2.0 8.0 5.0 5.0 3.0 6.0 1.0 9.0 4.0 6.0 9.0 5.0 2.0 5.0 0.0 4.0 8.0 9.0 6.0 -321.0 4.0 6.0 3.0 2.0 1.0 9.0 6.0 6.0 6.0 6.0 9.0 1.0 7.0 10.0 4.0 0.0 1.0 6.0 
5.0 7.0 4.0 9.0 0.0 9.0 3.0 3.0 8.0 5.0 2.0 6.0 8.0 0.0 10.0 5.0 0.0 3.0 6.0 10.0 3.0 9.0 5.0 1.0 5.0 9.0 6.0 10.0 7.0 1.0 2.0 9.0 6.0 0.0 9.0 8.0 0.0 4.0 0.0 10.0 8.0 1.0 8.0 9.0 7.0 9.0 8.0 10.0 4.0 -383.0 7.0 3.0 10.0 6.0 5.0 10.0 10.0 7.0 6.0 6.0 7.0 10.0 1.0 5.0 9.0 1.0 9.0 
1.0 10.0 5.0 4.0 9.0 6.0 4.0 5.0 10.0 10.0 7.0 9.0 8.0 10.0 6.0 9.0 10.0 4.0 1.0 7.0 8.0 5.0 2.0 8.0 10.0 10.0 4.0 5.0 5.0 4.0 9.0 6.0 9.0 1.0 7.0 0.0 6.0 0.0 9.0 6.0 10.0 4.0 2.0 10.0 5.0 5.0 0.0 9.0 6.0 7.0 -416.0 5.0 8.0 6.0 10.0 8.0 7.0 10.0 10.0 8.0 10.0 7.0 3.0 4.0 3.0 3.0 7.0 
6.0 4.0 7.0 6.0 5.0 4.0 0.0 6.0 1.0 8.0 0.0 5.0 3.0 8.0 5.0 6.0 6.0 2.0 10.0 7.0 4.0 3.0 10.0 1.0 9.0 5.0 7.0 0.0 6.0 3.0 0.0 5.0 4.0 4.0 3.0 9.0 7.0 1.0 2.0 0.0 9.0 5.0 5.0 8.0 7.0 10.0 0.0 0.0 3.0 3.0 5.0 -313.0 3.0 3.0 10.0 4.0 0.0 6.0 3.0 6.0 10.0 10.0 0.0 9.0 1.0 5.0 6.0 
4.0 1.0 7.0 7.0 2.0 8.0 7.0 0.0 3.0 0.0 1.0 6.0 3.0 2.0 8.0 9.0 8.0 8.0 0.0 3.0 2.0 0.0 7.0 9.0 0.0 2.0 1.0 3.0 8.0 0.0 6.0 6.0 5.0 2.0 6.0 8.0 5.0 5.0 3.0 4.0 0.0 7.0 9.0 4.0 1.0 2.0 3.0 1.0 2.0 10.0 8.0 3.0 -303.0 8.0 10.0 5.0 9.0 2.0 8.0 10.0 8.0 2.0 0.0 4.0 3.0 7.0 8.0 
7.0 6.0 1.0 3.0 9.0 6.0 0.0 0.0 8.0 5.0 9.0 10.0 1.0 2.0 6.0 7.0 1.0 5.0 5.0 4.0 10.0 2.0 8.0 8.0 10.0 4.0 9.0 5.0 10.0 7.0 2.0 7.0 9.0 0.0 6.0 6.0 8.0 5.0 8.0 1.0 1.0 2.0 3.0 7.0 5.0 1.0 2.0 4.0 1.0 6.0 6.0 3.0 8.0 -347.0 4.0 9.0 7.0 10.0 9.0 3.0 1.0 9.0 0.0 1.0 10.0 7.0 8.0 
0.0 6.0 9.0 5.0 3.0 3.0 4.0 0.0 6.0 3.0 3.0 6.0 3.0 1.0 7.0 10.0 1.0 5.0 4.0 10.0 1.0 0.0 10.0 2.0 1.0 5.0 0.0 0.0 0.0 1.0 4.0 4.0 8.0 9.0 2.0 10.0 9.0 3.0 6.0 2.0 7.0 7.0 9.0 5.0 9.0 3.0 3.0 0.0 9.0 5.0 10.0 10.0 10.0 4.0 -294.0 0.0 1.0 1.0 4.0 3.0 2.0 1.0 9.0 1.0 4.0 7.0 4.0 
1.0 4.0 7.0 1.0 7.0 0.0 5.0 7.0 6.0 5.0 1.0 9.0 8.0 1.0 1.0 0.0 2.0 2.0 5.0 4.0 5.0 10.0 3.0 6.0 10.0 6.0 7.0 4.0 6.0 4.0 7.0 9.0 0.0 4.0 4.0 10.0 5.0 9.0 6.0 1.0 9.0 4.0 5.0 2.0 5.0 5.0 2.0 9.0 6.0 10.0 8.0 4.0 5.0 9.0 0.0 -351.0 10.0 0.0 9.0 7.0 3.0 8.0 5.0 7.0 9.0 9.0 9.0 
3.0 2.0 2.0 9.0 8.0 3.0 6.0 9.0 8.0 10.0 1.0 2.0 9.0 4.0 1.0 4.0 7.0 3.0 3.0 10.0 6.0 4.0 7.0 6.0 2.0 3.0 7.0 10.0 6.0 9.0 6.0 8.0 5.0 7.0 9.0 10.0 4.0 5.0 10.0 9.0 2.0 1.0 4.0 6.0 7.0 6.0 4.0 9.0 6.0 10.0 7.0 0.0 9.0 7.0 1.0 10.0 -376.0 2.0 10.0 0.0 6.0 8.0 7.0 1.0 5.0 7.0 4.0 
0.0 9.0 5.0 2.0 3.0 0.0 2.0 8.0 4.0 7.0 10.0 9.0 2.0 5.0 10.0 6.0 10.0 5.0 6.0 7.0 9.0 3.0 8.0 8.0 0.0 3.0 1.0 1.0 1.0 6.0 4.0 9.0 3.0 2.0 2.0 4.0 1.0 8.0 0.0 8.0 3.0 1.0 8.0 3.0 4.0 1.0 2.0 7.0 6.0 7.0 10.0 6.0 2.0 10.0 1.0 0.0 2.0 -305.0 1.0 8.0 5.0 1.0 9.0 9.0 1.0 5.0 2.0 
2.0 0.0 2.0 7.0 4.0 4.0 0.0 9.0 1.0 1.0 2.0 10.0 2.0 0.0 0.0 6.0 4.0 2.0 1.0 10.0 9.0 6.0 5.0 1.0 9.0 1.0 8.0 3.0 6.0 5.0 2.0 10.0 4.0 7.0 0.0 8.0 3.0 10.0 7.0 10.0 1.0 10.0 0.0 8.0 1.0 8.0 9.0 2.0 6.0 6.0 10.0 3.0 8.0 9.0 4.0 9.0 10.0 1.0 -336.0 5.0 9.0 7.0 9.0 0.0 5.0 10.0 5.0 
5.0 0.0 2.0 2.0 6.0 3.0 0.0 5.0 1.0 6.0 10.0 2.0 9.0 3.0 2.0 3.0 0.0 7.0 10.0 0.0 4.0 2.0 8.0 0.0 5.0 4.0 3.0 3.0 5.0 0.0 4.0 9.0 8.0 1.0 7.0 8.0 0.0 0.0 10.0 9.0 6.0 3.0 6.0 9.0 2.0 2.0 1.0 9.0 9.0 6.0 8.0 6.0 10.0 3.0 3.0 7.0 0.0 8.0 5.0 -311.0 9.0 1.0 1.0 4.0 10.0 7.0 10.0 
2.0 0.0 3.0 1.0 0.0 8.0 9.0 9.0 8.0 4.0 0.0 7.0 3.0 2.0 0.0 3.0 8.0 7.0 8.0 7.0 2.0 8.0 5.0 1.0 10.0 6.0 10.0 1.0 5.0 8.0 4.0 5.0 5.0 9.0 0.0 7.0 5.0 6.0 1.0 1.0 7.0 8.0 2.0 1.0 0.0 6.0 10.0 6.0 1.0 7.0 10.0 10.0 8.0 1.0 2.0 3.0 6.0 5.0 9.0 9.0 -333.0 5.0 2.0 6.0 4.0 7.0 10.0 
2.0 0.0 5.0 5.0 6.0 5.0 0.0 10.0 7.0 7.0 7.0 8.0 9.0 7.0 9.0 8.0 4.0 5.0 6.0 0.0 8.0 0.0 3.0 1.0 9.0 2.0 9.0 9.0 10.0 3.0 3.0 0.0 8.0 0.0 10.0 9.0 9.0 7.0 6.0 6.0 0.0 9.0 4.0 9.0 3.0 1.0 4.0 4.0 7.0 10.0 7.0 10.0 2.0 9.0 1.0 8.0 8.0 1.0 7.0 1.0 5.0 -359.0 9.0 2.0 7.0 4.0 5.0 
6.0 0.0 8.0 1.0 5.0 9.0 7.0 9.0 9.0 8.0 5.0 9.0 4.0 2.0 4.0 9.0 10.0 2.0 1.0 4.0 4.0 3.0 2.0 9.0 2.0 4.0 8.0 2.0 3.0 4.0 5.0 10.0 5.0 0.0 8.0 7.0 6.0 4.0 0.0 2.0 9.0 0.0 3.0 1.0 5.0 9.0 5.0 2.0 10.0 1.0 3.0 0.0 0.0 0.0 9.0 5.0 7.0 9.0 9.0 1.0 2.0 9.0 -330.0 4.0 9.0 8.0 10.0 
3.0 0.0 1.0 2.0 6.0 6.0 9.0 7.0 3.0 5.0 3.0 7.0 6.0 1.0 9.0 7.0 4.0 0.0 10.0 4.0 9.0 3.0 5.0 8.0 3.0 10.0 0.0 0.0 6.0 10.0 5.0 7.0 3.0 5.0 1.0 1.0 9.0 10.0 9.0 7.0 6.0 0.0 4.0 0.0 8.0 7.0 10.0 2.0 4.0 5.0 4.0 9.0 4.0 1.0 1.0 7.0 1.0 9.0 0.0 4.0 6.0 2.0 4.0 -329.0 9.0 8.0 10.0 
5.0 0.0 10.0 7.0 0.0 1.0 7.0 3.0 1.0 4.0 2.0 4.0 0.0 1.0 7.0 0.0 1.0 7.0 3.0 9.0 3.0 0.0 8.0 1.0 6.0 5.0 0.0 7.0 0.0 10.0 8.0 6.0 5.0 6.0 6.0 2.0 5.0 6.0 4.0 7.0 10.0 3.0 6.0 10.0 6.0 5.0 1.0 9.0 0.0 9.0 3.0 1.0 3.0 10.0 4.0 9.0 5.0 1.0 5.0 10.0 4.0 7.0 9.0 9.0 -318.0 9.0 3.0 
0.0 0.0 3.0 1.0 7.0 10.0 7.0 8.0 8.0 2.0 0.0 8.0 6.0 7.0 5.0 9.0 1.0 9.0 1.0 10.0 8.0 6.0 5.0 2.0 4.0 7.0 1.0 6.0 9.0 2.0 3.0 4.0 3.0 9.0 4.0 9.0 0.0 2.0 9.0 6.0 5.0 6.0 4.0 7.0 9.0 10.0 0.0 6.0 1.0 1.0 3.0 5.0 7.0 7.0 7.0 9.0 7.0 5.0 10.0 7.0 7.0 4.0 8.0 8.0 9.0 -361.0 8.0 
0.0 0.0 9.0 2.0 5.0 5.0 3.0 6.0 10.0 8.0 6.0 0.0 6.0 2.0 7.0 6.0 7.0 6.0 5.0 8.0 1.0 6.0 5.0 2.0 6.0 6.0 8.0 10.0 9.0 6.0 8.0 6.0 4.0 3.0 3.0 7.0 10.0 0.0 0.0 8.0 8.0 4.0 0.0 3.0 3.0 8.0 0.0 7.0 6.0 9.0 7.0 6.0 8.0 8.0 4.0 9.0 4.0 2.0 5.0 10.0 10.0 5.0 10.0 10.0 3.0 8.0 -366.0 

